
Gurobi 13.0.0 (win64) logging started Fri Dec 19 22:33:17 2025

Set parameter LogFile to value "passenger_mix_flow.log"
Gurobi Optimizer version 13.0.0 build v13.0.0rc1 (win64 - Windows 11.0 (26100.2))

CPU model: 13th Gen Intel(R) Core(TM) i7-13700H, instruction set [SSE2|AVX|AVX2]
Thread count: 14 physical cores, 20 logical processors, using up to 20 threads

IIS computation: initial model status unknown, solving to determine model status
Found heuristic solution: objective 0.0000000

Explored 0 nodes (0 simplex iterations) in 0.00 seconds (0.00 work units)
Thread count was 1 (of 20 available processors)

Solution count 1: 0 

Optimal solution found (tolerance 1.00e-04)
Best objective 0.000000000000e+00, best bound 0.000000000000e+00, gap 0.0000%
IIS runtime: 0.02 seconds (0.00 work units)

Gurobi 13.0.0 (win64) logging started Fri Dec 19 22:48:05 2025

Set parameter LogFile to value "passenger_mix_flow.log"
Gurobi Optimizer version 13.0.0 build v13.0.0rc1 (win64 - Windows 11.0 (26100.2))

CPU model: 13th Gen Intel(R) Core(TM) i7-13700H, instruction set [SSE2|AVX|AVX2]
Thread count: 14 physical cores, 20 logical processors, using up to 20 threads

IIS computation: initial model status unknown, solving to determine model status
Found heuristic solution: objective 0.0000000

Explored 0 nodes (0 simplex iterations) in 0.00 seconds (0.00 work units)
Thread count was 1 (of 20 available processors)

Solution count 1: 0 

Optimal solution found (tolerance 1.00e-04)
Best objective 0.000000000000e+00, best bound 0.000000000000e+00, gap 0.0000%
IIS runtime: 0.00 seconds (0.00 work units)

Gurobi 13.0.0 (win64) logging started Fri Dec 19 22:48:43 2025

Set parameter LogFile to value "passenger_mix_flow.log"
Gurobi Optimizer version 13.0.0 build v13.0.0rc1 (win64 - Windows 11.0 (26100.2))

CPU model: 13th Gen Intel(R) Core(TM) i7-13700H, instruction set [SSE2|AVX|AVX2]
Thread count: 14 physical cores, 20 logical processors, using up to 20 threads

IIS computation: initial model status unknown, solving to determine model status
Found heuristic solution: objective 0.0000000

Explored 0 nodes (0 simplex iterations) in 0.00 seconds (0.00 work units)
Thread count was 1 (of 20 available processors)

Solution count 1: 0 

Optimal solution found (tolerance 1.00e-04)
Best objective 0.000000000000e+00, best bound 0.000000000000e+00, gap 0.0000%
IIS runtime: 0.00 seconds (0.00 work units)

Gurobi 13.0.0 (win64) logging started Fri Dec 19 22:57:00 2025

Set parameter LogFile to value "passenger_mix_flow.log"
Gurobi Optimizer version 13.0.0 build v13.0.0rc1 (win64 - Windows 11.0 (26100.2))

CPU model: 13th Gen Intel(R) Core(TM) i7-13700H, instruction set [SSE2|AVX|AVX2]
Thread count: 14 physical cores, 20 logical processors, using up to 20 threads

IIS computation: initial model status unknown, solving to determine model status
Found heuristic solution: objective 0.0000000

Explored 0 nodes (0 simplex iterations) in 0.00 seconds (0.00 work units)
Thread count was 1 (of 20 available processors)

Solution count 1: 0 

Optimal solution found (tolerance 1.00e-04)
Best objective 0.000000000000e+00, best bound 0.000000000000e+00, gap 0.0000%
IIS runtime: 0.00 seconds (0.00 work units)

Gurobi 13.0.0 (win64) logging started Fri Dec 19 23:04:29 2025

Set parameter LogFile to value "passenger_mix_flow.log"
Gurobi Optimizer version 13.0.0 build v13.0.0rc1 (win64 - Windows 11.0 (26100.2))

CPU model: 13th Gen Intel(R) Core(TM) i7-13700H, instruction set [SSE2|AVX|AVX2]
Thread count: 14 physical cores, 20 logical processors, using up to 20 threads

IIS computation: initial model status unknown, solving to determine model status
Found heuristic solution: objective 0.0000000

Explored 0 nodes (0 simplex iterations) in 0.00 seconds (0.00 work units)
Thread count was 1 (of 20 available processors)

Solution count 1: 0 

Optimal solution found (tolerance 1.00e-04)
Best objective 0.000000000000e+00, best bound 0.000000000000e+00, gap 0.0000%
IIS runtime: 0.01 seconds (0.00 work units)

Gurobi 13.0.0 (win64) logging started Fri Dec 19 23:10:29 2025

Set parameter LogFile to value "passenger_mix_flow.log"
Gurobi Optimizer version 13.0.0 build v13.0.0rc1 (win64 - Windows 11.0 (26100.2))

CPU model: 13th Gen Intel(R) Core(TM) i7-13700H, instruction set [SSE2|AVX|AVX2]
Thread count: 14 physical cores, 20 logical processors, using up to 20 threads

IIS computation: initial model status unknown, solving to determine model status
Found heuristic solution: objective 0.0000000

Explored 0 nodes (0 simplex iterations) in 0.00 seconds (0.00 work units)
Thread count was 1 (of 20 available processors)

Solution count 1: 0 

Optimal solution found (tolerance 1.00e-04)
Best objective 0.000000000000e+00, best bound 0.000000000000e+00, gap 0.0000%
IIS runtime: 0.00 seconds (0.00 work units)

Gurobi 13.0.0 (win64) logging started Fri Dec 19 23:12:20 2025

Set parameter LogFile to value "passenger_mix_flow.log"
Gurobi Optimizer version 13.0.0 build v13.0.0rc1 (win64 - Windows 11.0 (26100.2))

CPU model: 13th Gen Intel(R) Core(TM) i7-13700H, instruction set [SSE2|AVX|AVX2]
Thread count: 14 physical cores, 20 logical processors, using up to 20 threads

IIS computation: initial model status unknown, solving to determine model status
Found heuristic solution: objective 0.0000000

Explored 0 nodes (0 simplex iterations) in 0.00 seconds (0.00 work units)
Thread count was 1 (of 20 available processors)

Solution count 1: 0 

Optimal solution found (tolerance 1.00e-04)
Best objective 0.000000000000e+00, best bound 0.000000000000e+00, gap 0.0000%
IIS runtime: 0.00 seconds (0.00 work units)

Gurobi 13.0.0 (win64) logging started Fri Dec 19 23:13:28 2025

Set parameter LogFile to value "passenger_mix_flow.log"
Gurobi Optimizer version 13.0.0 build v13.0.0rc1 (win64 - Windows 11.0 (26100.2))

CPU model: 13th Gen Intel(R) Core(TM) i7-13700H, instruction set [SSE2|AVX|AVX2]
Thread count: 14 physical cores, 20 logical processors, using up to 20 threads

IIS computation: initial model status unknown, solving to determine model status
Found heuristic solution: objective 0.0000000

Explored 0 nodes (0 simplex iterations) in 0.00 seconds (0.00 work units)
Thread count was 1 (of 20 available processors)

Solution count 1: 0 

Optimal solution found (tolerance 1.00e-04)
Best objective 0.000000000000e+00, best bound 0.000000000000e+00, gap 0.0000%
IIS runtime: 0.00 seconds (0.00 work units)

Gurobi 13.0.0 (win64) logging started Fri Dec 19 23:18:18 2025

Set parameter LogFile to value "passenger_mix_flow.log"
Gurobi Optimizer version 13.0.0 build v13.0.0rc1 (win64 - Windows 11.0 (26100.2))

CPU model: 13th Gen Intel(R) Core(TM) i7-13700H, instruction set [SSE2|AVX|AVX2]
Thread count: 14 physical cores, 20 logical processors, using up to 20 threads

IIS computation: initial model status unknown, solving to determine model status
Found heuristic solution: objective 0.0000000

Explored 0 nodes (0 simplex iterations) in 0.00 seconds (0.00 work units)
Thread count was 1 (of 20 available processors)

Solution count 1: 0 

Optimal solution found (tolerance 1.00e-04)
Best objective 0.000000000000e+00, best bound 0.000000000000e+00, gap 0.0000%
IIS runtime: 0.00 seconds (0.00 work units)

Gurobi 13.0.0 (win64) logging started Fri Dec 19 23:43:39 2025

Set parameter LogFile to value "passenger_mix_flow.log"
Gurobi Optimizer version 13.0.0 build v13.0.0rc1 (win64 - Windows 11.0 (26100.2))

CPU model: 13th Gen Intel(R) Core(TM) i7-13700H, instruction set [SSE2|AVX|AVX2]
Thread count: 14 physical cores, 20 logical processors, using up to 20 threads

IIS computation: initial model status unknown, solving to determine model status
Found heuristic solution: objective 0.0000000

Explored 0 nodes (0 simplex iterations) in 0.00 seconds (0.00 work units)
Thread count was 1 (of 20 available processors)

Solution count 1: 0 

Optimal solution found (tolerance 1.00e-04)
Best objective 0.000000000000e+00, best bound 0.000000000000e+00, gap 0.0000%
IIS runtime: 0.00 seconds (0.00 work units)

Gurobi 13.0.0 (win64) logging started Fri Dec 19 23:45:33 2025

Set parameter LogFile to value "passenger_mix_flow.log"
Gurobi Optimizer version 13.0.0 build v13.0.0rc1 (win64 - Windows 11.0 (26100.2))

CPU model: 13th Gen Intel(R) Core(TM) i7-13700H, instruction set [SSE2|AVX|AVX2]
Thread count: 14 physical cores, 20 logical processors, using up to 20 threads

IIS computation: initial model status unknown, solving to determine model status
Found heuristic solution: objective 0.0000000

Explored 0 nodes (0 simplex iterations) in 0.00 seconds (0.00 work units)
Thread count was 1 (of 20 available processors)

Solution count 1: 0 

Optimal solution found (tolerance 1.00e-04)
Best objective 0.000000000000e+00, best bound 0.000000000000e+00, gap 0.0000%
IIS runtime: 0.00 seconds (0.00 work units)

Gurobi 13.0.0 (win64) logging started Fri Dec 19 23:45:43 2025

Set parameter LogFile to value "passenger_mix_flow.log"
Gurobi Optimizer version 13.0.0 build v13.0.0rc1 (win64 - Windows 11.0 (26100.2))

CPU model: 13th Gen Intel(R) Core(TM) i7-13700H, instruction set [SSE2|AVX|AVX2]
Thread count: 14 physical cores, 20 logical processors, using up to 20 threads

IIS computation: initial model status unknown, solving to determine model status
Found heuristic solution: objective 0.0000000

Explored 0 nodes (0 simplex iterations) in 0.00 seconds (0.00 work units)
Thread count was 1 (of 20 available processors)

Solution count 1: 0 

Optimal solution found (tolerance 1.00e-04)
Best objective 0.000000000000e+00, best bound 0.000000000000e+00, gap 0.0000%
IIS runtime: 0.00 seconds (0.00 work units)

Gurobi 13.0.0 (win64) logging started Fri Dec 19 23:48:07 2025

Set parameter LogFile to value "passenger_mix_flow.log"
Gurobi Optimizer version 13.0.0 build v13.0.0rc1 (win64 - Windows 11.0 (26100.2))

CPU model: 13th Gen Intel(R) Core(TM) i7-13700H, instruction set [SSE2|AVX|AVX2]
Thread count: 14 physical cores, 20 logical processors, using up to 20 threads

IIS computation: initial model status unknown, solving to determine model status
Found heuristic solution: objective 0.0000000

Explored 0 nodes (0 simplex iterations) in 0.00 seconds (0.00 work units)
Thread count was 1 (of 20 available processors)

Solution count 1: 0 

Optimal solution found (tolerance 1.00e-04)
Best objective 0.000000000000e+00, best bound 0.000000000000e+00, gap 0.0000%
IIS runtime: 0.00 seconds (0.00 work units)

Gurobi 13.0.0 (win64) logging started Fri Dec 19 23:50:33 2025

Set parameter LogFile to value "passenger_mix_flow.log"
Gurobi Optimizer version 13.0.0 build v13.0.0rc1 (win64 - Windows 11.0 (26100.2))

CPU model: 13th Gen Intel(R) Core(TM) i7-13700H, instruction set [SSE2|AVX|AVX2]
Thread count: 14 physical cores, 20 logical processors, using up to 20 threads

IIS computation: initial model status unknown, solving to determine model status
Found heuristic solution: objective 0.0000000

Explored 0 nodes (0 simplex iterations) in 0.00 seconds (0.00 work units)
Thread count was 1 (of 20 available processors)

Solution count 1: 0 

Optimal solution found (tolerance 1.00e-04)
Best objective 0.000000000000e+00, best bound 0.000000000000e+00, gap 0.0000%
IIS runtime: 0.00 seconds (0.00 work units)
